proyfinal/src/viki/013/experimentInOfficeAgust.take6.output/9340268e-329c-4039-aefb-cbd70c58ae00.als.out
Reading from standard input... Use '--help' for help.
============================[ Problem Statistics ]=============================
|                                                                             |
|  Number of variables:         87638                                         |
|  Number of clauses:          161767                                         |
|  Parse time:                   0.03 s                                       |
|                                                                             |
============================[ Search Statistics ]==============================
| Conflicts |          ORIGINAL         |          LEARNT          | Progress |
|           |    Vars  Clauses Literals |    Limit  Clauses Lit/Cl |          |
===============================================================================
|       100 |   63223   108244   270472 |    39689      100     17 | 27.859 % |
|       250 |   63223   108244   270472 |    43658      250     24 | 27.859 % |
|       475 |   63035   107498   268706 |    48024      453     29 | 28.073 % |
|       812 |   63035   107498   268706 |    52826      790     50 | 28.073 % |
|      1318 |   63034   107454   268616 |    58109     1294     60 | 28.075 % |
|      2077 |   62870   106785   267072 |    63920     2044     68 | 28.262 % |
|      3216 |   62840   106665   266788 |    70312     3180     66 | 28.296 % |
|      4924 |   62742   106289   265868 |    77343     4884     68 | 28.408 % |
|      7486 |   62742   106289   265868 |    85077     7446     76 | 28.408 % |
===============================================================================
restarts              : 46
conflicts             : 11195          (6609 /sec)
decisions             : 46993          (0.00 % random) (27743 /sec)
propagations          : 17361443       (10249572 /sec)
conflict literals     : 845524         (48.45 % deleted)
Memory used           : 30.24 MB
CPU time              : 1.69387 s

INDETERMINATE
